NAME: Random_75_3
ELLAPSED_TIME_(ms): 0
TOUR_SIZE: 2085.6887
TOUR_SECTION
0
4
29
16
2
23
5
30
26
42
71
64
41
62
70
68
9
44
73
56
46
57
18
31
8
19
60
55
51
54
67
6
25
32
14
7
36
11
72
58
74
47
13
1
49
17
52
10
35
37
34
39
40
53
50
61
38
66
15
65
33
22
28
27
43
48
69
12
3
45
63
20
21
24
59
0
EOF
